
Log started (V12.10.0.0) Fri Apr  9 00:32:08 2021


Problem 'asset.lp' read.
Read time = 0.00 sec. (0.15 ticks)
New value for default parallel thread count: 1
New value for time limit in seconds: 200
Version identifier: 12.10.0.0 | 2019-11-26 | 843d4de
CPXPARAM_Threads                                 1
CPXPARAM_TimeLimit                               200
Found incumbent of value -0.894087 after 0.00 sec. (0.07 ticks)
Tried aggregator 3 times.
MIP Presolve eliminated 488 rows and 284 columns.
MIP Presolve modified 1359 coefficients.
Aggregator did 414 substitutions.
Reduced MIP has 507 rows, 551 columns, and 2320 nonzeros.
Reduced MIP has 488 binaries, 35 generals, 0 SOSs, and 0 indicators.
Presolve time = 0.01 sec. (5.46 ticks)
Probing fixed 63 vars, tightened 9 bounds.
Probing time = 0.00 sec. (2.37 ticks)
Cover probing fixed 0 vars, tightened 35 bounds.
Tried aggregator 1 time.
MIP Presolve eliminated 83 rows and 81 columns.
MIP Presolve modified 116 coefficients.
Reduced MIP has 424 rows, 468 columns, and 1868 nonzeros.
Reduced MIP has 416 binaries, 24 generals, 0 SOSs, and 0 indicators.
Presolve time = 0.00 sec. (1.12 ticks)
Probing time = 0.00 sec. (1.87 ticks)
Tried aggregator 1 time.
Detecting symmetries...
MIP Presolve modified 62 coefficients.
Reduced MIP has 424 rows, 468 columns, and 1868 nonzeros.
Reduced MIP has 416 binaries, 24 generals, 0 SOSs, and 0 indicators.
Presolve time = 0.00 sec. (1.30 ticks)
Probing time = 0.00 sec. (1.87 ticks)
Clique table members: 1344.
MIP emphasis: balance optimality and feasibility.
MIP search method: dynamic search.
Parallel mode: none, using 1 thread.
Root relaxation solution time = 0.00 sec. (4.30 ticks)

        Nodes                                         Cuts/
   Node  Left     Objective  IInf  Best Integer    Best Bound    ItCnt     Gap

*     0+    0                           -0.8941      278.1947              --- 
      0     0      221.6202   116       -0.8941      221.6202      344     --- 
      0     0      216.0614   116       -0.8941     Cuts: 206      613     --- 
*     0+    0                          160.7097      216.0614            34.44%
      0     0      215.4652   116      160.7097     Cuts: 206      841   34.07%
      0     0      215.2469   116      160.7097     Cuts: 140      958   33.94%
      0     0      215.1159   116      160.7097     Cuts: 115     1046   33.85%
      0     0      214.7679   116      160.7097      Cuts: 73     1101   33.64%
Detecting symmetries...
      0     0      214.2382   116      160.7097     Cuts: 113     1278   33.31%
      0     0      214.0137   116      160.7097     Cuts: 115     1350   33.17%
*     0+    0                          164.5544      214.0137            30.06%
      0     0      213.9142   116      164.5544      Cuts: 80     1426   30.00%
      0     0      213.9093   116      164.5544      Cuts: 90     1465   29.99%
      0     0      213.8795   116      164.5544      Cuts: 45     1499   29.97%
      0     0      213.8762   116      164.5544      Cuts: 66     1523   29.97%
Detecting symmetries...
      0     2      213.8762   132      164.5544      213.8742     1523   29.97%
Elapsed time = 0.19 sec. (196.39 ticks, tree = 0.01 MB, solutions = 2)
*   100+   67                          174.7078      213.4161            22.16%
*   200+  154                          174.7095      213.2981            22.09%
    235   187      210.4534   130      174.7095      213.2783     8735   22.08%
*   400+  282                          177.2950      212.5132            19.86%
*   400+  282                          177.2964      212.5132            19.86%
    413   291      190.1457    86      177.2964      212.4620    15937   19.83%
*   500+  352                          177.2973      210.7351            18.86%
    550   388      201.9350   121      177.2973      210.4769    21643   18.71%
*   680+  477                          179.2145      209.2401            16.75%
    778   555      190.3852    65      179.2145      208.5929    28564   16.39%
*   780+  555                          179.2188      208.5929            16.39%
    980   674      206.7940   130      179.2188      207.3027    35557   15.67%

Performing restart 1

Repeating presolve.
Tried aggregator 2 times.
MIP Presolve modified 327 coefficients.
Aggregator did 4 substitutions.
Reduced MIP has 420 rows, 464 columns, and 1613 nonzeros.
Reduced MIP has 412 binaries, 24 generals, 0 SOSs, and 0 indicators.
Presolve time = 0.00 sec. (1.76 ticks)
Tried aggregator 1 time.
Reduced MIP has 420 rows, 464 columns, and 1613 nonzeros.
Reduced MIP has 412 binaries, 24 generals, 0 SOSs, and 0 indicators.
Presolve time = 0.00 sec. (1.22 ticks)
Represolve time = 0.01 sec. (9.35 ticks)
   1111     0      209.3960   152      179.2188     Cuts: 196    42397   15.39%
   1111     0      202.2345   152      179.2188     Cuts: 185    42668   12.84%
   1111     0      197.0841   152      179.2188     Cuts: 137    42880    9.97%
   1111     0      193.7493   152      179.2188     Cuts: 145    43085    8.11%
   1111     0      193.0700   152      179.2188     Cuts: 155    43286    7.73%
   1111     0      192.4958   152      179.2188     Cuts: 113    43409    7.41%
   1111     0      192.3228   152      179.2188      Cuts: 83    43548    7.31%
   1111     0      191.9872   152      179.2188      Cuts: 77    43685    7.12%
   1111     0      191.7546   152      179.2188      Cuts: 85    43760    6.99%
*  1111+    0                          179.2189      191.7546             6.99%
   1111     0      191.0170   152      179.2189      Cuts: 97    43880    6.58%
   1111     0      190.7668   152      179.2189      Cuts: 48    43916    6.44%
   1111     0      190.5372   152      179.2189      Cuts: 27    43945    6.32%
   1111     0      190.2901   152      179.2189      Cuts: 40    44079    6.18%
   1111     0      190.1009   152      179.2189      Cuts: 49    44120    6.07%
   1111     0      189.9354   152      179.2189      Cuts: 32    44160    5.98%
   1111     0      189.9045   152      179.2189      Cuts: 33    44193    5.96%
   1111     0      189.8749   152      179.2189      Cuts: 20    44227    5.95%
   1111     0      189.8501   152      179.2189      Cuts: 19    44273    5.93%
   1111     0      189.8381   152      179.2189      Cuts: 16    44304    5.93%
   1111     0      189.5544   152      179.2189      Cuts: 22    44418    5.77%
   1111     0      189.3805   152      179.2189      Cuts: 62    44505    5.67%
   1111     0      189.1745   152      179.2189      Cuts: 34    44605    5.56%
   1111     0      189.1130   152      179.2189      Cuts: 49    44691    5.52%
   1111     0      189.0111   152      179.2189      Cuts: 39    44794    5.46%
   1111     0      188.9624   152      179.2189      Cuts: 26    44839    5.44%
   1111     0      188.8898   152      179.2189      Cuts: 24    44915    5.40%
   1111     0      188.8806   152      179.2189      Cuts: 47    44981    5.39%
   1111     0      188.8191   152      179.2189      Cuts: 19    45071    5.36%
   1111     0      188.7795   152      179.2189      Cuts: 38    45236    5.33%
   1111     0      188.7544   152      179.2189      Cuts: 49    45375    5.32%
   1111     0      188.6988   152      179.2189      Cuts: 63    45490    5.29%
*  1111+    0                          179.9160      188.6988             4.88%
   1111     0      188.6564   152      179.9160      Cuts: 59    45577    4.86%
   1111     0      188.6421   152      179.9160      Cuts: 50    45662    4.85%
*  1111+    0                          179.9162      188.6421             4.85%
   1111     2      188.6421   147      179.9162      188.6418    45662    4.85%
   1118     9      188.4922   114      179.9162      188.5979    46456    4.83%
   1137    24      182.5922    28      179.9162      188.5979    47325    4.83%
   1209    58      188.0484   111      179.9162      188.3301    50328    4.68%
*  1211+   58                          179.9163      188.3301             4.68%
*  1271+   81                          180.8531      188.2569             4.09%
*  1281+   89                          180.8533      188.2225             4.07%
*  1283    91      integral     0      180.8535      188.2225    52608    4.07%
Elapsed time = 3.68 sec. (4014.62 ticks, tree = 0.05 MB, solutions = 16)
*  1285    91      integral     0      180.8535      188.2225    52612    4.07%
*  1571+   27                          184.1006      184.7014             0.33%

GUB cover cuts applied:  23
Clique cuts applied:  45
Cover cuts applied:  7
Implied bound cuts applied:  9
Flow cuts applied:  8
Mixed integer rounding cuts applied:  45
Zero-half cuts applied:  48
Lift and project cuts applied:  9
Gomory fractional cuts applied:  4

Root node processing (before b&c):
  Real time             =    0.19 sec. (196.56 ticks)
Sequential b&c:
  Real time             =    4.24 sec. (4702.02 ticks)
                          ------------
Total (root+branch&cut) =    4.43 sec. (4898.58 ticks)

Solution pool: 19 solutions saved.

MIP - Integer optimal, tolerance (0.0001/1e-06):  Objective =  1.8410064640e+02
Current MIP best bound =  1.8410515816e+02 (gap = 0.00451176, 0.00%)
Solution time =    4.43 sec.  Iterations = 68120  Nodes = 1600 (6)
Deterministic time = 4898.59 ticks  (1104.92 ticks/sec)


Incumbent solution
Variable Name           Solution Value
F                           210.000000
f1                            0.929354
f2                           24.970000
y99                           1.000000
y115                          1.000000
y91                           1.000000
y30                           1.000000
y48                           1.000000
y15                           1.000000
y90                           1.000000
y103                          1.000000
y116                          1.000000
y130                          1.000000
y118                          1.000000
y9                            1.000000
y92                           1.000000
y50                           1.000000
s2                            6.000000
s13                           6.000000
s20                           6.000000
s28                           6.000000
s32                           6.000000
s45                           6.000000
s59                           6.000000
s95                           6.000000
s97                           6.000000
s99                           6.385065
s100                          6.000000
s101                          6.000000
s125                          6.000000
s141                          6.000000
s152                          6.000000
s174                          6.000000
s184                          6.000000
s115                          6.768943
s91                           6.815383
s143                          6.170000
s46                           6.180000
s30                           6.604962
s48                           6.361091
s15                           6.568515
s90                           7.310154
s102                          6.620000
s82                           6.660000
s103                          7.578393
s112                          6.700000
s116                          7.649069
s134                          6.770000
s130                          7.744874
s146                          6.820000
s178                          6.900000
s118                          7.712819
s9                            7.791951
s92                           7.932715
s50                           7.983937
x121x118x1                    1.000000
x150x91x1                     1.000000
x153x90x1                     1.000000
x1x130x1                      1.000000
x161x99x1                     1.000000
x161x15x1                     1.000000
x180x99x1                     1.000000
x180x48x1                     1.000000
x153x90x2                     1.000000
x106x91x2                     1.000000
x106x30x2                     1.000000
x182x115x2                    1.000000
x129x15x2                     1.000000
x121x103x3                    1.000000
x150x30x3                     1.000000
x182x115x3                    1.000000
x1x103x3                      1.000000
x129x48x3                     1.000000
x99x118x1                     1.000000
x99x9x1                       1.000000
x115x0x2                      1.000000
x115x50x3                     1.000000
x91x50x1                      1.000000
x91x0x2                       1.000000
x30x92x2                      1.000000
x30x92x3                      1.000000
x48x9x1                       1.000000
x48x130x3                     1.000000
x15x116x1                     1.000000
x15x116x2                     1.000000
x90x0x1                       1.000000
x90x0x2                       1.000000
x103x0x3                      2.000000
x116x0x1                      1.000000
x116x0x2                      1.000000
x130x0x1                      1.000000
x130x0x3                      1.000000
x118x0x1                      2.000000
x9x0x1                        2.000000
x92x0x2                       1.000000
x92x0x3                       1.000000
x50x0x1                       1.000000
x50x0x3                       1.000000
s121                          5.310242
z121z103z3                    1.000000
z121z118z1                    1.000000
s150                          5.272144
z150z91z1                     1.000000
z150z30z3                     1.000000
z150z118z1                    1.000000
z150z9z1                      1.000000
s153                          5.762721
z153z90z1                     1.000000
z153z90z2                     1.000000
s106                          5.389984
z106z91z2                     1.000000
z106z30z2                     1.000000
s182                          5.370000
z182z115z2                    1.000000
z182z115z3                    1.000000
s1                            5.984333
z1z103z3                      1.000000
z1z130z1                      1.000000
s161                          4.701000
z161z99z1                     1.000000
z161z15z1                     1.000000
z161z118z1                    1.000000
z161z9z1                      1.000000
s180                          4.747090
z180z99z1                     1.000000
z180z48z1                     1.000000
z180z118z1                    1.000000
z180z9z1                      1.000000
s129                          4.846230
z129z48z3                     1.000000
z129z15z2                     1.000000
z129z102z2                    1.000000
z129z82z3                     1.000000
z129z103z3                    1.000000
z129z178z3                    1.000000
z99z118z1                     1.000000
z99z9z1                       1.000000
z115z50z3                     1.000000
z91z50z1                      1.000000
z30z92z2                      1.000000
z30z92z3                      1.000000
z48z130z3                     1.000000
z48z9z1                       1.000000
z15z116z1                     1.000000
z15z116z2                     1.000000
All other variables in the range 1-1253 are 0.
